************************************************************************
file with basedata            : mm26_.bas
initial value random generator: 2029553007
************************************************************************
projects                      :  1
jobs (incl. supersource/sink ):  12
horizon                       :  80
RESOURCES
  - renewable                 :  2   R
  - nonrenewable              :  2   N
  - doubly constrained        :  0   D
************************************************************************
PROJECT INFORMATION:
pronr.  #jobs rel.date duedate tardcost  MPM-Time
    1     10      0       16        7       16
************************************************************************
PRECEDENCE RELATIONS:
jobnr.    #modes  #successors   successors
   1        1          3           2   3   4
   2        3          2           5  11
   3        3          2           7   8
   4        3          2           6  10
   5        3          1           7
   6        3          2           9  11
   7        3          2           9  10
   8        3          1           9
   9        3          1          12
  10        3          1          12
  11        3          1          12
  12        1          0        
************************************************************************
REQUESTS/DURATIONS:
jobnr. mode duration  R 1  R 2  N 1  N 2
------------------------------------------------------------------------
  1      1     0       0    0    0    0
  2      1     2       9    0    2    0
         2     5       5    0    0    9
         3     6       0    4    0    5
  3      1     9       0    2    2    0
         2     9       3    0    0    6
         3    10       3    0    0    4
  4      1     2       0    8    0    1
         2     7       0    6    0    1
         3    10       0    2    6    0
  5      1     2       8    0    0    3
         2     5       0    5    5    0
         3     9       0    4    0    3
  6      1     1       0    2    9    0
         2     1       9    0    0    1
         3     7       8    0    9    0
  7      1     3       0    7    0    6
         2     5       0    7    5    0
         3     7       6    0    0    5
  8      1     4       0    9    0    3
         2     5       0    7    7    0
         3     6       5    0    7    0
  9      1     3       0    5    8    0
         2     7       0    5    0   10
         3     9       0    4    0   10
 10      1     2       0    7    0    9
         2     8       9    0    0    4
         3    10       0    7    7    0
 11      1     3       5    0    7    0
         2     4       5    0    0    4
         3     6       0    9    0    2
 12      1     0       0    0    0    0
************************************************************************
RESOURCEAVAILABILITIES:
  R 1  R 2  N 1  N 2
   20   25   29   26
************************************************************************
MAXIMAL LAGS:
from  to  type  delay
    1   12   ES      0
    1    2   ES      0
    2   12   ES      0
    1    3   ES      0
    3   12   ES      0
    1    4   ES      0
    4   12   ES      0
    1    5   ES      0
    5   12   ES      0
    1    6   ES      0
    6   12   ES      0
    1    7   ES      0
    7   12   ES      0
    1    8   ES      0
    8   12   ES      0
    1    9   ES      0
    9   12   ES      0
    1   10   ES      0
   10   12   ES      0
    1   11   ES      0
   11   12   ES      0
    1   12   ES      0
    2    5   SS     -9
    2    5   SE     -9
    2    5   ES    -10
    2    5   EE      3
    2   11   SS      5
    2   11   SE    -11
    2   11   ES    -12
    2   11   EE     12
    3    7   SS      0
    3    7   SE      4
    3    7   ES     12
    3    7   EE    -10
    3    8   SS     -9
    3    8   SE     -4
    3    8   ES      7
    3    8   EE     -8
    4    6   SS    -10
    4    6   SE      8
    6    4   SE      0
    4    6   ES      0
    4    6   EE     -3
    4   10   SS     -5
    4   10   SE     -5
    4   10   ES     11
    4   10   EE     -3
    5    7   SS      2
    5    7   SE      8
    5    7   ES     -8
    5    7   EE     -8
    6    9   SS      4
    6    9   SE     -7
    6    9   ES    -12
    6    9   EE    -11
    6   11   SS      9
    6   11   SE     -1
    6   11   ES     -2
    6   11   EE      3
    7    9   SS      2
    7    9   SE      5
    7    9   ES     -4
    7    9   EE      5
    7   10   SS      2
    7   10   SE     -8
    7   10   ES     10
    7   10   EE      5
    8    9   SS     -7
    8    9   SE      6
    8    9   ES      7
    8    9   EE      2
************************************************************************
